WARNING: for repeatability, setting FPU to use double precision
============================[ Problem Statistics ]=============================
|                                                                             |
|  Number of variables:           100                                         |
|  Number of clauses:             449                                         |
|  Parse time:                   0.00 s                                       |
|  Eliminated clauses:           0.00 Mb                                      |
|  Simplification time:          0.00 s                                       |
|                                                                             |
============================[ Search Statistics ]==============================
| Conflicts |          ORIGINAL         |          LEARNT          | Progress |
|           |    Vars  Clauses Literals |    Limit  Clauses Lit/Cl |          |
===============================================================================
|       100 |      95      436     1331 |      159      100      7 |  0.010 % |
===============================================================================
restarts              : 3
conflicts             : 220            (69139 /sec)
decisions             : 283            (0.00 % random) (88938 /sec)
propagations          : 4709           (1479887 /sec)
conflict literals     : 1377           (15.37 % deleted)
Memory used           : 13.00 MB
CPU time              : 0.003182 s

SATISFIABLE
